p tw 86 93
1 2
2 13
3 84
4 5
5 6
6 7
7 8
7 10
8 9
9 84
10 11
11 12
12 14
13 24
14 15
15 16
16 17
17 18
17 19
18 84
19 20
20 21
21 22
22 23
23 25
24 35
25 26
26 27
27 28
28 29
29 30
30 31
31 32
32 33
33 34
34 36
35 46
36 37
37 38
38 39
39 40
40 41
41 42
42 43
43 44
44 45
45 47
45 78
46 57
47 48
48 49
49 50
50 51
51 52
51 41
52 53
53 54
54 55
55 56
56 58
57 68
58 59
59 60
60 61
61 62
62 63
62 41
63 64
64 65
65 66
66 67
66 41
67 69
68 79
69 70
70 71
71 72
71 41
72 73
73 74
74 75
75 76
76 77
77 84
78 80
79 86
80 81
81 82
82 83
83 84
84 85
86 3
86 4
